NAME          afiroqp.mps
ROWS
 E  0
 E  1
 E  2
 E  3
 E  4
 E  5
 E  6
 E  7
 E  8
 E  9
 E  10
 E  11
 E  12
 E  13
 E  14
 E  15
 E  16
 E  17
 E  18
 E  19
 E  20
 E  21
 E  22
 E  23
 E  24
 E  25
 E  26
 N  27
COLUMNS
    0         23               0.301
    0         0                   -1
    0         1                -1.06
    0         2                    1
    1         3                   -1
    1         0                    1
    1         27                -0.4
    2         21                  -1
    2         0                    1
    3         25                   1
    3         1                    1
    4         24               0.301
    4         4                   -1
    4         5                -1.06
    4         6                    1
    5         24               0.313
    5         4                   -1
    5         5                -1.06
    5         7                    1
    6         24               0.313
    6         4                   -1
    6         5                -0.96
    6         8                    1
    7         24               0.326
    7         4                   -1
    7         5                -0.86
    7         9                    1
    8         20               2.364
    8         6                   -1
    9         20               2.386
    9         7                   -1
    10        20               2.408
    10        8                   -1
    11        20               2.429
    11        9                   -1
    12        3                  1.4
    12        4                    1
    12        27               -0.32
    13        22                  -1
    13        4                    1
    14        26                   1
    14        5                    1
    15        21               0.109
    15        10                  -1
    15        11               -0.43
    15        12                   1
    16        13                  -1
    16        10                   1
    16        27                -0.6
    17        23                  -1
    17        10                   1
    18        20                  -1
    18        10                   1
    19        25                   1
    19        11                   1
    20        22               0.109
    20        14               -0.43
    20        15                   1
    20        16                   1
    21        22               0.108
    21        14               -0.43
    21        15                   1
    21        17                   1
    22        22               0.108
    22        14               -0.39
    22        15                   1
    22        18                   1
    23        22               0.107
    23        14               -0.37
    23        15                   1
    23        19                   1
    24        20               2.191
    24        16                  -1
    25        20               2.219
    25        17                  -1
    26        20               2.249
    26        18                  -1
    27        20               2.279
    27        19                  -1
    28        13                 1.4
    28        15                  -1
    28        27               -0.48
    29        24                  -1
    29        15                   1
    30        26                   1
    30        14                   1
    31        15                   1
    31        27                  10
    32        2                    1
    33        3                    1
    34        6                    1
    35        7                    1
    36        8                    1
    37        9                    1
    38        12                   1
    39        13                   1
    40        16                   1
    41        17                   1
    42        18                   1
    43        19                   1
    44        20                   1
    45        21                   1
    46        22                   1
    47        23                   1
    48        24                   1
    49        25                   1
    50        26                   1
RHS
    1         2                   80
    1         6                   80
    1         12                 500
    1         15                  44
    1         16                 500
    1         25                 310
    1         26                 300
BOUNDS
 UP BD1       0                10000
 UP BD1       1                10000
 UP BD1       2                10000
 UP BD1       3                10000
 UP BD1       4                10000
 UP BD1       5                10000
 UP BD1       6                10000
 UP BD1       7                10000
 UP BD1       8                10000
 UP BD1       9                10000
 UP BD1       10               10000
 UP BD1       11               10000
 UP BD1       12               10000
 UP BD1       13               10000
 UP BD1       14               10000
 UP BD1       15               10000
 UP BD1       16               10000
 UP BD1       17               10000
 UP BD1       18               10000
 UP BD1       19               10000
 UP BD1       20               10000
 UP BD1       21               10000
 UP BD1       22               10000
 UP BD1       23               10000
 UP BD1       24               10000
 UP BD1       25               10000
 UP BD1       26               10000
 UP BD1       27               10000
 UP BD1       28               10000
 UP BD1       29               10000
 UP BD1       30               10000
 UP BD1       31               10000
 UP BD1       32               10000
 UP BD1       33               10000
 UP BD1       34               10000
 UP BD1       35               10000
 UP BD1       36               10000
 UP BD1       37               10000
 UP BD1       38               10000
 UP BD1       39               10000
 UP BD1       40               10000
 UP BD1       41               10000
 UP BD1       42               10000
 UP BD1       43               10000
 UP BD1       44               10000
 UP BD1       45               10000
 UP BD1       46               10000
 UP BD1       47               10000
 UP BD1       48               10000
 UP BD1       49               10000
 UP BD1       50               10000
QUADS
    0         0                    2
    0         1                   -1
    1         1                    2
    1         2                   -1
    2         2                    2
    2         3                   -1
    3         3                    2
    3         4                   -1
    4         4                    2
    4         5                   -1
    5         5                    2
    5         6                   -1
    6         6                    2
    6         7                   -1
    7         7                    2
    7         8                   -1
    8         8                    2
    8         9                   -1
    9         9                    2
    9         10                  -1
    10        10                   2
    10        11                  -1
    11        11                   2
    11        12                  -1
    12        12                   2
    12        13                  -1
    13        13                   2
    13        14                  -1
    14        14                   2
    14        15                  -1
    15        15                   2
    15        16                  -1
    16        16                   2
    16        17                  -1
    17        17                   2
    17        18                  -1
    18        18                   2
    18        19                  -1
    19        19                   2
    19        20                  -1
    20        20                   2
    20        21                  -1
    21        21                   2
    21        22                  -1
    22        22                   2
    22        23                  -1
    23        23                   2
    23        24                  -1
    24        24                   2
    24        25                  -1
    25        25                   2
    25        26                  -1
    26        26                   2
    26        27                  -1
    27        27                   2
    27        28                  -1
    28        28                   2
    28        29                  -1
    29        29                   2
    29        30                  -1
    30        30                   2
    30        31                  -1
    31        31                   2
    31        32                  -1
    32        32                   2
    32        33                  -1
    33        33                   2
    33        34                  -1
    34        34                   2
    34        35                  -1
    35        35                   2
    35        36                  -1
    36        36                   2
    36        37                  -1
    37        37                   2
    37        38                  -1
    38        38                   2
    38        39                  -1
    39        39                   2
    39        40                  -1
    40        40                   2
    40        41                  -1
    41        41                   2
    41        42                  -1
    42        42                   2
    42        43                  -1
    43        43                   2
    43        44                  -1
    44        44                   2
    44        45                  -1
    45        45                   2
    45        46                  -1
    46        46                   2
    46        47                  -1
    47        47                   2
    47        48                  -1
    48        48                   2
    48        49                  -1
    49        49                   2
    49        50                  -1
    50        50                   2
ENDATA
